(set-logic UFLIA)
(declare-sort Tindex_1 0)
(declare-sort Tindex_0 0)
(declare-sort Tindex_2 0)
(declare-fun op_0 () Tindex_2)
(declare-fun op_1 () Tindex_2)
(assert (not false))
(assert (= op_0 op_1))
(assert (not (= op_0 op_1)))
(check-sat)
(exit)
